NAME : LPS-n25-m328
COMMENT : (Lartu-Peter-Santi Plot, instance 9128 out of 39200. 25 customers.)
TYPE : CVRP
DIMENSION : 25
EDGE_WEIGHT_TYPE : EUC_2D
CAPACITY : 114
NODE_COORD_SECTION
 1 58 75
 2 45 23
 3 97 50
 4 6 14
 5 58 32
 6 22 52
 7 33 81
 8 46 52
 9 42 79
 10 4 20
 11 35 70
 12 48 21
 13 85 30
 14 58 73
 15 50 94
 16 7 86
 17 56 13
 18 56 82
 19 4 55
 20 44 99
 21 38 83
 22 97 44
 23 31 20
 24 62 15
 25 69 56
DEMAND_SECTION
1 0
2 36
3 86
4 77
5 41
6 45
7 84
8 106
9 39
10 17
11 45
12 83
13 106
14 79
15 37
16 113
17 107
18 56
19 10
20 39
21 112
22 104
23 44
24 12
25 4
DEPOT_SECTION
 1
 -1
EOF
